; benchmark generated from python API
(set-info :status unknown)
(declare-fun cell_1_5 () Int)
(declare-fun cell_1_8 () Int)
(declare-fun cell_2_1 () Int)
(declare-fun cell_2_3 () Int)
(declare-fun cell_3_5 () Int)
(declare-fun cell_3_9 () Int)
(declare-fun cell_4_4 () Int)
(declare-fun cell_5_3 () Int)
(declare-fun cell_6_9 () Int)
(declare-fun cell_7_7 () Int)
(declare-fun cell_8_2 () Int)
(declare-fun cell_9_6 () Int)
(declare-fun cell_1_1 () Int)
(declare-fun cell_3_1 () Int)
(declare-fun cell_4_1 () Int)
(declare-fun cell_5_1 () Int)
(declare-fun cell_6_1 () Int)
(declare-fun cell_7_1 () Int)
(declare-fun cell_8_1 () Int)
(declare-fun cell_9_1 () Int)
(declare-fun cell_1_2 () Int)
(declare-fun cell_2_2 () Int)
(declare-fun cell_3_2 () Int)
(declare-fun cell_4_2 () Int)
(declare-fun cell_5_2 () Int)
(declare-fun cell_6_2 () Int)
(declare-fun cell_7_2 () Int)
(declare-fun cell_9_2 () Int)
(declare-fun cell_1_3 () Int)
(declare-fun cell_3_3 () Int)
(declare-fun cell_4_3 () Int)
(declare-fun cell_6_3 () Int)
(declare-fun cell_7_3 () Int)
(declare-fun cell_8_3 () Int)
(declare-fun cell_9_3 () Int)
(declare-fun cell_1_4 () Int)
(declare-fun cell_2_4 () Int)
(declare-fun cell_3_4 () Int)
(declare-fun cell_5_4 () Int)
(declare-fun cell_6_4 () Int)
(declare-fun cell_7_4 () Int)
(declare-fun cell_8_4 () Int)
(declare-fun cell_9_4 () Int)
(declare-fun cell_2_5 () Int)
(declare-fun cell_4_5 () Int)
(declare-fun cell_5_5 () Int)
(declare-fun cell_6_5 () Int)
(declare-fun cell_7_5 () Int)
(declare-fun cell_8_5 () Int)
(declare-fun cell_9_5 () Int)
(declare-fun cell_1_6 () Int)
(declare-fun cell_2_6 () Int)
(declare-fun cell_3_6 () Int)
(declare-fun cell_4_6 () Int)
(declare-fun cell_5_6 () Int)
(declare-fun cell_6_6 () Int)
(declare-fun cell_7_6 () Int)
(declare-fun cell_8_6 () Int)
(declare-fun cell_1_7 () Int)
(declare-fun cell_2_7 () Int)
(declare-fun cell_3_7 () Int)
(declare-fun cell_4_7 () Int)
(declare-fun cell_5_7 () Int)
(declare-fun cell_6_7 () Int)
(declare-fun cell_8_7 () Int)
(declare-fun cell_9_7 () Int)
(declare-fun cell_2_8 () Int)
(declare-fun cell_3_8 () Int)
(declare-fun cell_4_8 () Int)
(declare-fun cell_5_8 () Int)
(declare-fun cell_6_8 () Int)
(declare-fun cell_7_8 () Int)
(declare-fun cell_8_8 () Int)
(declare-fun cell_9_8 () Int)
(declare-fun cell_1_9 () Int)
(declare-fun cell_2_9 () Int)
(declare-fun cell_4_9 () Int)
(declare-fun cell_5_9 () Int)
(declare-fun cell_7_9 () Int)
(declare-fun cell_8_9 () Int)
(declare-fun cell_9_9 () Int)
(assert
 (= cell_1_5 2))
(assert
 (= cell_1_8 1))
(assert
 (= cell_2_1 1))
(assert
 (= cell_2_3 2))
(assert
 (= cell_3_5 1))
(assert
 (= cell_3_9 2))
(assert
 (= cell_4_4 1))
(assert
 (= cell_5_3 1))
(assert
 (= cell_6_9 1))
(assert
 (= cell_7_7 1))
(assert
 (= cell_8_2 1))
(assert
 (= cell_9_6 1))
(assert
 (let (($x7967 (= cell_1_1 9)))
 (let (($x6712 (= cell_1_1 8)))
 (let (($x9853 (= cell_1_1 7)))
 (let (($x3742 (= cell_1_1 6)))
 (let (($x9000 (= cell_1_1 5)))
 (let (($x7995 (= cell_1_1 4)))
 (let (($x7670 (= cell_1_1 3)))
 (let (($x4964 (= cell_1_1 2)))
 (let (($x5698 (= cell_1_1 1)))
 (or $x5698 $x4964 $x7670 $x7995 $x9000 $x3742 $x9853 $x6712 $x7967)))))))))))
(assert
 (let (($x3248 (= cell_2_1 1)))
 (or $x3248 (= cell_2_1 2) (= cell_2_1 3) (= cell_2_1 4) (= cell_2_1 5) (= cell_2_1 6) (= cell_2_1 7) (= cell_2_1 8) (= cell_2_1 9))))
(assert
 (let (($x3770 (= cell_3_1 9)))
 (let (($x9474 (= cell_3_1 8)))
 (let (($x7379 (= cell_3_1 7)))
 (let (($x8739 (= cell_3_1 6)))
 (let (($x3197 (= cell_3_1 5)))
 (let (($x7361 (= cell_3_1 4)))
 (let (($x6246 (= cell_3_1 3)))
 (let (($x2210 (= cell_3_1 2)))
 (let (($x309 (= cell_3_1 1)))
 (or $x309 $x2210 $x6246 $x7361 $x3197 $x8739 $x7379 $x9474 $x3770)))))))))))
(assert
 (let (($x8617 (= cell_4_1 9)))
 (let (($x7732 (= cell_4_1 8)))
 (let (($x3517 (= cell_4_1 7)))
 (let (($x6031 (= cell_4_1 6)))
 (let (($x4889 (= cell_4_1 5)))
 (let (($x8971 (= cell_4_1 4)))
 (let (($x7526 (= cell_4_1 3)))
 (let (($x9791 (= cell_4_1 2)))
 (let (($x1479 (= cell_4_1 1)))
 (or $x1479 $x9791 $x7526 $x8971 $x4889 $x6031 $x3517 $x7732 $x8617)))))))))))
(assert
 (let (($x680 (= cell_5_1 9)))
 (let (($x5289 (= cell_5_1 8)))
 (let (($x431 (= cell_5_1 7)))
 (let (($x4978 (= cell_5_1 6)))
 (let (($x2241 (= cell_5_1 5)))
 (let (($x4072 (= cell_5_1 4)))
 (let (($x6996 (= cell_5_1 3)))
 (let (($x2597 (= cell_5_1 2)))
 (let (($x5425 (= cell_5_1 1)))
 (or $x5425 $x2597 $x6996 $x4072 $x2241 $x4978 $x431 $x5289 $x680)))))))))))
(assert
 (let (($x8749 (= cell_6_1 9)))
 (let (($x308 (= cell_6_1 8)))
 (let (($x5171 (= cell_6_1 7)))
 (let (($x1195 (= cell_6_1 6)))
 (let (($x4856 (= cell_6_1 5)))
 (let (($x1659 (= cell_6_1 4)))
 (let (($x5235 (= cell_6_1 3)))
 (let (($x8064 (= cell_6_1 2)))
 (let (($x10098 (= cell_6_1 1)))
 (or $x10098 $x8064 $x5235 $x1659 $x4856 $x1195 $x5171 $x308 $x8749)))))))))))
(assert
 (let (($x9248 (= cell_7_1 9)))
 (let (($x7778 (= cell_7_1 8)))
 (let (($x9378 (= cell_7_1 7)))
 (let (($x2824 (= cell_7_1 6)))
 (let (($x10063 (= cell_7_1 5)))
 (let (($x3389 (= cell_7_1 4)))
 (let (($x140 (= cell_7_1 3)))
 (let (($x3569 (= cell_7_1 2)))
 (let (($x2740 (= cell_7_1 1)))
 (or $x2740 $x3569 $x140 $x3389 $x10063 $x2824 $x9378 $x7778 $x9248)))))))))))
(assert
 (let (($x5907 (= cell_8_1 9)))
 (let (($x4431 (= cell_8_1 8)))
 (let (($x5523 (= cell_8_1 7)))
 (let (($x9687 (= cell_8_1 6)))
 (let (($x8129 (= cell_8_1 5)))
 (let (($x9980 (= cell_8_1 4)))
 (let (($x3243 (= cell_8_1 3)))
 (let (($x6276 (= cell_8_1 2)))
 (let (($x1569 (= cell_8_1 1)))
 (or $x1569 $x6276 $x3243 $x9980 $x8129 $x9687 $x5523 $x4431 $x5907)))))))))))
(assert
 (let (($x3452 (= cell_9_1 9)))
 (let (($x462 (= cell_9_1 8)))
 (let (($x5325 (= cell_9_1 7)))
 (let (($x9413 (= cell_9_1 6)))
 (let (($x6899 (= cell_9_1 5)))
 (let (($x4152 (= cell_9_1 4)))
 (let (($x7804 (= cell_9_1 3)))
 (let (($x7649 (= cell_9_1 2)))
 (let (($x3736 (= cell_9_1 1)))
 (or $x3736 $x7649 $x7804 $x4152 $x6899 $x9413 $x5325 $x462 $x3452)))))))))))
(assert
 (let (($x3469 (= cell_1_2 9)))
 (let (($x4383 (= cell_1_2 8)))
 (let (($x4117 (= cell_1_2 7)))
 (let (($x7276 (= cell_1_2 6)))
 (let (($x3763 (= cell_1_2 5)))
 (let (($x7273 (= cell_1_2 4)))
 (let (($x4433 (= cell_1_2 3)))
 (let (($x3177 (= cell_1_2 2)))
 (let (($x4055 (= cell_1_2 1)))
 (or $x4055 $x3177 $x4433 $x7273 $x3763 $x7276 $x4117 $x4383 $x3469)))))))))))
(assert
 (let (($x8884 (= cell_2_2 9)))
 (let (($x7783 (= cell_2_2 8)))
 (let (($x8638 (= cell_2_2 7)))
 (let (($x10060 (= cell_2_2 6)))
 (let (($x1124 (= cell_2_2 5)))
 (let (($x7597 (= cell_2_2 4)))
 (let (($x842 (= cell_2_2 3)))
 (let (($x4792 (= cell_2_2 2)))
 (let (($x3888 (= cell_2_2 1)))
 (or $x3888 $x4792 $x842 $x7597 $x1124 $x10060 $x8638 $x7783 $x8884)))))))))))
(assert
 (let (($x6647 (= cell_3_2 9)))
 (let (($x738 (= cell_3_2 8)))
 (let (($x5321 (= cell_3_2 7)))
 (let (($x2234 (= cell_3_2 6)))
 (let (($x273 (= cell_3_2 5)))
 (let (($x9997 (= cell_3_2 4)))
 (let (($x2778 (= cell_3_2 3)))
 (let (($x9656 (= cell_3_2 2)))
 (let (($x8597 (= cell_3_2 1)))
 (or $x8597 $x9656 $x2778 $x9997 $x273 $x2234 $x5321 $x738 $x6647)))))))))))
(assert
 (let (($x8106 (= cell_4_2 9)))
 (let (($x9131 (= cell_4_2 8)))
 (let (($x6724 (= cell_4_2 7)))
 (let (($x2065 (= cell_4_2 6)))
 (let (($x2103 (= cell_4_2 5)))
 (let (($x6721 (= cell_4_2 4)))
 (let (($x7926 (= cell_4_2 3)))
 (let (($x1373 (= cell_4_2 2)))
 (let (($x9797 (= cell_4_2 1)))
 (or $x9797 $x1373 $x7926 $x6721 $x2103 $x2065 $x6724 $x9131 $x8106)))))))))))
(assert
 (let (($x2893 (= cell_5_2 9)))
 (let (($x7231 (= cell_5_2 8)))
 (let (($x2253 (= cell_5_2 7)))
 (let (($x4111 (= cell_5_2 6)))
 (let (($x1030 (= cell_5_2 5)))
 (let (($x2894 (= cell_5_2 4)))
 (let (($x10209 (= cell_5_2 3)))
 (let (($x8962 (= cell_5_2 2)))
 (let (($x9358 (= cell_5_2 1)))
 (or $x9358 $x8962 $x10209 $x2894 $x1030 $x4111 $x2253 $x7231 $x2893)))))))))))
(assert
 (let (($x87 (= cell_6_2 9)))
 (let (($x5439 (= cell_6_2 8)))
 (let (($x5665 (= cell_6_2 7)))
 (let (($x7237 (= cell_6_2 6)))
 (let (($x9530 (= cell_6_2 5)))
 (let (($x6266 (= cell_6_2 4)))
 (let (($x9242 (= cell_6_2 3)))
 (let (($x9867 (= cell_6_2 2)))
 (let (($x5788 (= cell_6_2 1)))
 (or $x5788 $x9867 $x9242 $x6266 $x9530 $x7237 $x5665 $x5439 $x87)))))))))))
(assert
 (let (($x10092 (= cell_7_2 9)))
 (let (($x5271 (= cell_7_2 8)))
 (let (($x4755 (= cell_7_2 7)))
 (let (($x7376 (= cell_7_2 6)))
 (let (($x2249 (= cell_7_2 5)))
 (let (($x1159 (= cell_7_2 4)))
 (let (($x1655 (= cell_7_2 3)))
 (let (($x168 (= cell_7_2 2)))
 (let (($x4439 (= cell_7_2 1)))
 (or $x4439 $x168 $x1655 $x1159 $x2249 $x7376 $x4755 $x5271 $x10092)))))))))))
(assert
 (let (($x8280 (= cell_8_2 1)))
 (or $x8280 (= cell_8_2 2) (= cell_8_2 3) (= cell_8_2 4) (= cell_8_2 5) (= cell_8_2 6) (= cell_8_2 7) (= cell_8_2 8) (= cell_8_2 9))))
(assert
 (let (($x1203 (= cell_9_2 9)))
 (let (($x8568 (= cell_9_2 8)))
 (let (($x2802 (= cell_9_2 7)))
 (let (($x6288 (= cell_9_2 6)))
 (let (($x796 (= cell_9_2 5)))
 (let (($x6436 (= cell_9_2 4)))
 (let (($x6823 (= cell_9_2 3)))
 (let (($x941 (= cell_9_2 2)))
 (let (($x396 (= cell_9_2 1)))
 (or $x396 $x941 $x6823 $x6436 $x796 $x6288 $x2802 $x8568 $x1203)))))))))))
(assert
 (let (($x5893 (= cell_1_3 9)))
 (let (($x6883 (= cell_1_3 8)))
 (let (($x10240 (= cell_1_3 7)))
 (let (($x9297 (= cell_1_3 6)))
 (let (($x6359 (= cell_1_3 5)))
 (let (($x9448 (= cell_1_3 4)))
 (let (($x7504 (= cell_1_3 3)))
 (let (($x6050 (= cell_1_3 2)))
 (let (($x3283 (= cell_1_3 1)))
 (or $x3283 $x6050 $x7504 $x9448 $x6359 $x9297 $x10240 $x6883 $x5893)))))))))))
(assert
 (let (($x4009 (= cell_2_3 2)))
 (or (= cell_2_3 1) $x4009 (= cell_2_3 3) (= cell_2_3 4) (= cell_2_3 5) (= cell_2_3 6) (= cell_2_3 7) (= cell_2_3 8) (= cell_2_3 9))))
(assert
 (let (($x8867 (= cell_3_3 9)))
 (let (($x9845 (= cell_3_3 8)))
 (let (($x1501 (= cell_3_3 7)))
 (let (($x6104 (= cell_3_3 6)))
 (let (($x8885 (= cell_3_3 5)))
 (let (($x6873 (= cell_3_3 4)))
 (let (($x3264 (= cell_3_3 3)))
 (let (($x4731 (= cell_3_3 2)))
 (let (($x5591 (= cell_3_3 1)))
 (or $x5591 $x4731 $x3264 $x6873 $x8885 $x6104 $x1501 $x9845 $x8867)))))))))))
(assert
 (let (($x211 (= cell_4_3 9)))
 (let (($x3938 (= cell_4_3 8)))
 (let (($x6877 (= cell_4_3 7)))
 (let (($x3387 (= cell_4_3 6)))
 (let (($x8050 (= cell_4_3 5)))
 (let (($x2297 (= cell_4_3 4)))
 (let (($x2287 (= cell_4_3 3)))
 (let (($x7387 (= cell_4_3 2)))
 (let (($x8110 (= cell_4_3 1)))
 (or $x8110 $x7387 $x2287 $x2297 $x8050 $x3387 $x6877 $x3938 $x211)))))))))))
(assert
 (let (($x7595 (= cell_5_3 1)))
 (or $x7595 (= cell_5_3 2) (= cell_5_3 3) (= cell_5_3 4) (= cell_5_3 5) (= cell_5_3 6) (= cell_5_3 7) (= cell_5_3 8) (= cell_5_3 9))))
(assert
 (let (($x6201 (= cell_6_3 9)))
 (let (($x3442 (= cell_6_3 8)))
 (let (($x6381 (= cell_6_3 7)))
 (let (($x7706 (= cell_6_3 6)))
 (let (($x5683 (= cell_6_3 5)))
 (let (($x8549 (= cell_6_3 4)))
 (let (($x7491 (= cell_6_3 3)))
 (let (($x7402 (= cell_6_3 2)))
 (let (($x8286 (= cell_6_3 1)))
 (or $x8286 $x7402 $x7491 $x8549 $x5683 $x7706 $x6381 $x3442 $x6201)))))))))))
(assert
 (let (($x6787 (= cell_7_3 9)))
 (let (($x4690 (= cell_7_3 8)))
 (let (($x2792 (= cell_7_3 7)))
 (let (($x9895 (= cell_7_3 6)))
 (let (($x481 (= cell_7_3 5)))
 (let (($x6045 (= cell_7_3 4)))
 (let (($x8284 (= cell_7_3 3)))
 (let (($x4927 (= cell_7_3 2)))
 (let (($x1060 (= cell_7_3 1)))
 (or $x1060 $x4927 $x8284 $x6045 $x481 $x9895 $x2792 $x4690 $x6787)))))))))))
(assert
 (let (($x6617 (= cell_8_3 2)))
 (let (($x1910 (= cell_8_3 1)))
 (or $x1910 $x6617 (= cell_8_3 3) (= cell_8_3 4) (= cell_8_3 5) (= cell_8_3 6) (= cell_8_3 7) (= cell_8_3 8) (= cell_8_3 9)))))
(assert
 (let (($x6655 (= cell_9_3 9)))
 (let (($x599 (= cell_9_3 8)))
 (let (($x4911 (= cell_9_3 7)))
 (let (($x7445 (= cell_9_3 6)))
 (let (($x5813 (= cell_9_3 5)))
 (let (($x8843 (= cell_9_3 4)))
 (let (($x6519 (= cell_9_3 3)))
 (let (($x5653 (= cell_9_3 2)))
 (let (($x2858 (= cell_9_3 1)))
 (or $x2858 $x5653 $x6519 $x8843 $x5813 $x7445 $x4911 $x599 $x6655)))))))))))
(assert
 (let (($x3167 (= cell_1_4 9)))
 (let (($x7394 (= cell_1_4 8)))
 (let (($x9161 (= cell_1_4 7)))
 (let (($x7928 (= cell_1_4 6)))
 (let (($x1035 (= cell_1_4 5)))
 (let (($x1267 (= cell_1_4 4)))
 (let (($x8533 (= cell_1_4 3)))
 (let (($x894 (= cell_1_4 2)))
 (let (($x7862 (= cell_1_4 1)))
 (or $x7862 $x894 $x8533 $x1267 $x1035 $x7928 $x9161 $x7394 $x3167)))))))))))
(assert
 (let (($x2650 (= cell_2_4 9)))
 (let (($x17 (= cell_2_4 8)))
 (let (($x270 (= cell_2_4 7)))
 (let (($x5441 (= cell_2_4 6)))
 (let (($x2781 (= cell_2_4 5)))
 (let (($x4247 (= cell_2_4 4)))
 (let (($x7122 (= cell_2_4 3)))
 (let (($x10021 (= cell_2_4 2)))
 (let (($x6779 (= cell_2_4 1)))
 (or $x6779 $x10021 $x7122 $x4247 $x2781 $x5441 $x270 $x17 $x2650)))))))))))
(assert
 (let (($x1296 (= cell_3_4 9)))
 (let (($x1131 (= cell_3_4 8)))
 (let (($x4182 (= cell_3_4 7)))
 (let (($x9163 (= cell_3_4 6)))
 (let (($x7542 (= cell_3_4 5)))
 (let (($x2171 (= cell_3_4 4)))
 (let (($x8069 (= cell_3_4 3)))
 (let (($x6267 (= cell_3_4 2)))
 (let (($x29 (= cell_3_4 1)))
 (or $x29 $x6267 $x8069 $x2171 $x7542 $x9163 $x4182 $x1131 $x1296)))))))))))
(assert
 (let (($x10094 (= cell_4_4 1)))
 (or $x10094 (= cell_4_4 2) (= cell_4_4 3) (= cell_4_4 4) (= cell_4_4 5) (= cell_4_4 6) (= cell_4_4 7) (= cell_4_4 8) (= cell_4_4 9))))
(assert
 (let (($x8621 (= cell_5_4 1)))
 (or $x8621 (= cell_5_4 2) (= cell_5_4 3) (= cell_5_4 4) (= cell_5_4 5) (= cell_5_4 6) (= cell_5_4 7) (= cell_5_4 8) (= cell_5_4 9))))
(assert
 (let (($x7917 (= cell_6_4 9)))
 (let (($x4616 (= cell_6_4 8)))
 (let (($x8516 (= cell_6_4 7)))
 (let (($x8703 (= cell_6_4 6)))
 (let (($x8277 (= cell_6_4 5)))
 (let (($x4723 (= cell_6_4 4)))
 (let (($x8222 (= cell_6_4 3)))
 (let (($x5914 (= cell_6_4 2)))
 (let (($x8145 (= cell_6_4 1)))
 (or $x8145 $x5914 $x8222 $x4723 $x8277 $x8703 $x8516 $x4616 $x7917)))))))))))
(assert
 (let (($x2147 (= cell_7_4 9)))
 (let (($x7005 (= cell_7_4 8)))
 (let (($x8376 (= cell_7_4 7)))
 (let (($x8340 (= cell_7_4 6)))
 (let (($x294 (= cell_7_4 5)))
 (let (($x2131 (= cell_7_4 4)))
 (let (($x4272 (= cell_7_4 3)))
 (let (($x8561 (= cell_7_4 2)))
 (let (($x301 (= cell_7_4 1)))
 (or $x301 $x8561 $x4272 $x2131 $x294 $x8340 $x8376 $x7005 $x2147)))))))))))
(assert
 (let (($x8712 (= cell_8_4 9)))
 (let (($x8068 (= cell_8_4 8)))
 (let (($x6641 (= cell_8_4 7)))
 (let (($x9043 (= cell_8_4 6)))
 (let (($x418 (= cell_8_4 5)))
 (let (($x844 (= cell_8_4 4)))
 (let (($x6241 (= cell_8_4 3)))
 (let (($x3497 (= cell_8_4 2)))
 (let (($x2369 (= cell_8_4 1)))
 (or $x2369 $x3497 $x6241 $x844 $x418 $x9043 $x6641 $x8068 $x8712)))))))))))
(assert
 (let (($x7961 (= cell_9_4 9)))
 (let (($x1835 (= cell_9_4 8)))
 (let (($x526 (= cell_9_4 7)))
 (let (($x579 (= cell_9_4 6)))
 (let (($x8953 (= cell_9_4 5)))
 (let (($x4101 (= cell_9_4 4)))
 (let (($x2261 (= cell_9_4 3)))
 (let (($x1066 (= cell_9_4 2)))
 (let (($x231 (= cell_9_4 1)))
 (or $x231 $x1066 $x2261 $x4101 $x8953 $x579 $x526 $x1835 $x7961)))))))))))
(assert
 (let (($x8639 (= cell_1_5 2)))
 (or (= cell_1_5 1) $x8639 (= cell_1_5 3) (= cell_1_5 4) (= cell_1_5 5) (= cell_1_5 6) (= cell_1_5 7) (= cell_1_5 8) (= cell_1_5 9))))
(assert
 (let (($x3195 (= cell_2_5 9)))
 (let (($x10337 (= cell_2_5 8)))
 (let (($x165 (= cell_2_5 7)))
 (let (($x6963 (= cell_2_5 6)))
 (let (($x6561 (= cell_2_5 5)))
 (let (($x2681 (= cell_2_5 4)))
 (let (($x8051 (= cell_2_5 3)))
 (let (($x1837 (= cell_2_5 2)))
 (let (($x7464 (= cell_2_5 1)))
 (or $x7464 $x1837 $x8051 $x2681 $x6561 $x6963 $x165 $x10337 $x3195)))))))))))
(assert
 (let (($x7264 (= cell_3_5 1)))
 (or $x7264 (= cell_3_5 2) (= cell_3_5 3) (= cell_3_5 4) (= cell_3_5 5) (= cell_3_5 6) (= cell_3_5 7) (= cell_3_5 8) (= cell_3_5 9))))
(assert
 (let (($x768 (= cell_4_5 2)))
 (let (($x7579 (= cell_4_5 1)))
 (or $x7579 $x768 (= cell_4_5 3) (= cell_4_5 4) (= cell_4_5 5) (= cell_4_5 6) (= cell_4_5 7) (= cell_4_5 8) (= cell_4_5 9)))))
(assert
 (let (($x4269 (= cell_5_5 2)))
 (let (($x8801 (= cell_5_5 1)))
 (or $x8801 $x4269 (= cell_5_5 3) (= cell_5_5 4) (= cell_5_5 5) (= cell_5_5 6) (= cell_5_5 7) (= cell_5_5 8) (= cell_5_5 9)))))
(assert
 (let (($x6625 (= cell_6_5 9)))
 (let (($x3650 (= cell_6_5 8)))
 (let (($x9694 (= cell_6_5 7)))
 (let (($x6251 (= cell_6_5 6)))
 (let (($x5930 (= cell_6_5 5)))
 (let (($x5070 (= cell_6_5 4)))
 (let (($x9098 (= cell_6_5 3)))
 (let (($x6937 (= cell_6_5 2)))
 (let (($x5303 (= cell_6_5 1)))
 (or $x5303 $x6937 $x9098 $x5070 $x5930 $x6251 $x9694 $x3650 $x6625)))))))))))
(assert
 (let (($x2660 (= cell_7_5 9)))
 (let (($x3612 (= cell_7_5 8)))
 (let (($x4427 (= cell_7_5 7)))
 (let (($x2077 (= cell_7_5 6)))
 (let (($x145 (= cell_7_5 5)))
 (let (($x6700 (= cell_7_5 4)))
 (let (($x6221 (= cell_7_5 3)))
 (let (($x8150 (= cell_7_5 2)))
 (let (($x5866 (= cell_7_5 1)))
 (or $x5866 $x8150 $x6221 $x6700 $x145 $x2077 $x4427 $x3612 $x2660)))))))))))
(assert
 (let (($x1822 (= cell_8_5 9)))
 (let (($x9497 (= cell_8_5 8)))
 (let (($x8458 (= cell_8_5 7)))
 (let (($x6079 (= cell_8_5 6)))
 (let (($x8099 (= cell_8_5 5)))
 (let (($x10018 (= cell_8_5 4)))
 (let (($x3147 (= cell_8_5 3)))
 (let (($x8726 (= cell_8_5 2)))
 (let (($x2433 (= cell_8_5 1)))
 (or $x2433 $x8726 $x3147 $x10018 $x8099 $x6079 $x8458 $x9497 $x1822)))))))))))
(assert
 (let (($x2457 (= cell_9_5 9)))
 (let (($x9375 (= cell_9_5 8)))
 (let (($x5882 (= cell_9_5 7)))
 (let (($x1209 (= cell_9_5 6)))
 (let (($x6231 (= cell_9_5 5)))
 (let (($x8302 (= cell_9_5 4)))
 (let (($x1827 (= cell_9_5 3)))
 (let (($x5702 (= cell_9_5 2)))
 (let (($x2889 (= cell_9_5 1)))
 (or $x2889 $x5702 $x1827 $x8302 $x6231 $x1209 $x5882 $x9375 $x2457)))))))))))
(assert
 (let (($x9095 (= cell_1_6 9)))
 (let (($x113 (= cell_1_6 8)))
 (let (($x8518 (= cell_1_6 7)))
 (let (($x4264 (= cell_1_6 6)))
 (let (($x2839 (= cell_1_6 5)))
 (let (($x7878 (= cell_1_6 4)))
 (let (($x4089 (= cell_1_6 3)))
 (let (($x1282 (= cell_1_6 2)))
 (let (($x3621 (= cell_1_6 1)))
 (or $x3621 $x1282 $x4089 $x7878 $x2839 $x4264 $x8518 $x113 $x9095)))))))))))
(assert
 (let (($x5876 (= cell_2_6 9)))
 (let (($x3933 (= cell_2_6 8)))
 (let (($x298 (= cell_2_6 7)))
 (let (($x6487 (= cell_2_6 6)))
 (let (($x8169 (= cell_2_6 5)))
 (let (($x1323 (= cell_2_6 4)))
 (let (($x4337 (= cell_2_6 3)))
 (let (($x8332 (= cell_2_6 2)))
 (let (($x2062 (= cell_2_6 1)))
 (or $x2062 $x8332 $x4337 $x1323 $x8169 $x6487 $x298 $x3933 $x5876)))))))))))
(assert
 (let (($x5376 (= cell_3_6 9)))
 (let (($x5506 (= cell_3_6 8)))
 (let (($x8152 (= cell_3_6 7)))
 (let (($x5469 (= cell_3_6 6)))
 (let (($x1727 (= cell_3_6 5)))
 (let (($x5396 (= cell_3_6 4)))
 (let (($x1044 (= cell_3_6 3)))
 (let (($x4648 (= cell_3_6 2)))
 (let (($x3399 (= cell_3_6 1)))
 (or $x3399 $x4648 $x1044 $x5396 $x1727 $x5469 $x8152 $x5506 $x5376)))))))))))
(assert
 (let (($x5724 (= cell_4_6 9)))
 (let (($x4354 (= cell_4_6 8)))
 (let (($x10109 (= cell_4_6 7)))
 (let (($x6304 (= cell_4_6 6)))
 (let (($x8872 (= cell_4_6 5)))
 (let (($x3814 (= cell_4_6 4)))
 (let (($x8714 (= cell_4_6 3)))
 (let (($x2228 (= cell_4_6 2)))
 (let (($x9261 (= cell_4_6 1)))
 (or $x9261 $x2228 $x8714 $x3814 $x8872 $x6304 $x10109 $x4354 $x5724)))))))))))
(assert
 (let (($x3614 (= cell_5_6 9)))
 (let (($x7475 (= cell_5_6 8)))
 (let (($x441 (= cell_5_6 7)))
 (let (($x3631 (= cell_5_6 6)))
 (let (($x6055 (= cell_5_6 5)))
 (let (($x5053 (= cell_5_6 4)))
 (let (($x2266 (= cell_5_6 3)))
 (let (($x7567 (= cell_5_6 2)))
 (let (($x3585 (= cell_5_6 1)))
 (or $x3585 $x7567 $x2266 $x5053 $x6055 $x3631 $x441 $x7475 $x3614)))))))))))
(assert
 (let (($x9958 (= cell_6_6 9)))
 (let (($x1700 (= cell_6_6 8)))
 (let (($x8281 (= cell_6_6 7)))
 (let (($x8025 (= cell_6_6 6)))
 (let (($x6924 (= cell_6_6 5)))
 (let (($x4278 (= cell_6_6 4)))
 (let (($x345 (= cell_6_6 3)))
 (let (($x2056 (= cell_6_6 2)))
 (let (($x4666 (= cell_6_6 1)))
 (or $x4666 $x2056 $x345 $x4278 $x6924 $x8025 $x8281 $x1700 $x9958)))))))))))
(assert
 (let (($x4572 (= cell_7_6 9)))
 (let (($x7984 (= cell_7_6 8)))
 (let (($x1705 (= cell_7_6 7)))
 (let (($x1975 (= cell_7_6 6)))
 (let (($x1642 (= cell_7_6 5)))
 (let (($x9017 (= cell_7_6 4)))
 (let (($x7017 (= cell_7_6 3)))
 (let (($x9331 (= cell_7_6 2)))
 (let (($x969 (= cell_7_6 1)))
 (or $x969 $x9331 $x7017 $x9017 $x1642 $x1975 $x1705 $x7984 $x4572)))))))))))
(assert
 (let (($x6870 (= cell_8_6 9)))
 (let (($x9947 (= cell_8_6 8)))
 (let (($x6280 (= cell_8_6 7)))
 (let (($x8139 (= cell_8_6 6)))
 (let (($x7201 (= cell_8_6 5)))
 (let (($x3766 (= cell_8_6 4)))
 (let (($x8685 (= cell_8_6 3)))
 (let (($x6350 (= cell_8_6 2)))
 (let (($x4366 (= cell_8_6 1)))
 (or $x4366 $x6350 $x8685 $x3766 $x7201 $x8139 $x6280 $x9947 $x6870)))))))))))
(assert
 (let (($x4118 (= cell_9_6 1)))
 (or $x4118 (= cell_9_6 2) (= cell_9_6 3) (= cell_9_6 4) (= cell_9_6 5) (= cell_9_6 6) (= cell_9_6 7) (= cell_9_6 8) (= cell_9_6 9))))
(assert
 (let (($x10129 (= cell_1_7 9)))
 (let (($x1981 (= cell_1_7 8)))
 (let (($x6342 (= cell_1_7 7)))
 (let (($x9513 (= cell_1_7 6)))
 (let (($x469 (= cell_1_7 5)))
 (let (($x4952 (= cell_1_7 4)))
 (let (($x4888 (= cell_1_7 3)))
 (let (($x6151 (= cell_1_7 2)))
 (let (($x8970 (= cell_1_7 1)))
 (or $x8970 $x6151 $x4888 $x4952 $x469 $x9513 $x6342 $x1981 $x10129)))))))))))
(assert
 (let (($x7572 (= cell_2_7 9)))
 (let (($x6582 (= cell_2_7 8)))
 (let (($x904 (= cell_2_7 7)))
 (let (($x5115 (= cell_2_7 6)))
 (let (($x8676 (= cell_2_7 5)))
 (let (($x8019 (= cell_2_7 4)))
 (let (($x2181 (= cell_2_7 3)))
 (let (($x2465 (= cell_2_7 2)))
 (let (($x6211 (= cell_2_7 1)))
 (or $x6211 $x2465 $x2181 $x8019 $x8676 $x5115 $x904 $x6582 $x7572)))))))))))
(assert
 (let (($x1790 (= cell_3_7 9)))
 (let (($x3706 (= cell_3_7 8)))
 (let (($x7892 (= cell_3_7 7)))
 (let (($x6440 (= cell_3_7 6)))
 (let (($x5406 (= cell_3_7 5)))
 (let (($x3253 (= cell_3_7 4)))
 (let (($x7056 (= cell_3_7 3)))
 (let (($x3278 (= cell_3_7 2)))
 (let (($x453 (= cell_3_7 1)))
 (or $x453 $x3278 $x7056 $x3253 $x5406 $x6440 $x7892 $x3706 $x1790)))))))))))
(assert
 (let (($x6901 (= cell_4_7 9)))
 (let (($x1397 (= cell_4_7 8)))
 (let (($x6530 (= cell_4_7 7)))
 (let (($x1715 (= cell_4_7 6)))
 (let (($x7162 (= cell_4_7 5)))
 (let (($x2017 (= cell_4_7 4)))
 (let (($x859 (= cell_4_7 3)))
 (let (($x636 (= cell_4_7 2)))
 (let (($x1651 (= cell_4_7 1)))
 (or $x1651 $x636 $x859 $x2017 $x7162 $x1715 $x6530 $x1397 $x6901)))))))))))
(assert
 (let (($x71 (= cell_5_7 9)))
 (let (($x620 (= cell_5_7 8)))
 (let (($x9926 (= cell_5_7 7)))
 (let (($x4525 (= cell_5_7 6)))
 (let (($x937 (= cell_5_7 5)))
 (let (($x7774 (= cell_5_7 4)))
 (let (($x4644 (= cell_5_7 3)))
 (let (($x1419 (= cell_5_7 2)))
 (let (($x1378 (= cell_5_7 1)))
 (or $x1378 $x1419 $x4644 $x7774 $x937 $x4525 $x9926 $x620 $x71)))))))))))
(assert
 (let (($x6773 (= cell_6_7 9)))
 (let (($x7102 (= cell_6_7 8)))
 (let (($x5697 (= cell_6_7 7)))
 (let (($x2106 (= cell_6_7 6)))
 (let (($x4044 (= cell_6_7 5)))
 (let (($x5078 (= cell_6_7 4)))
 (let (($x1244 (= cell_6_7 3)))
 (let (($x5947 (= cell_6_7 2)))
 (let (($x8066 (= cell_6_7 1)))
 (or $x8066 $x5947 $x1244 $x5078 $x4044 $x2106 $x5697 $x7102 $x6773)))))))))))
(assert
 (let (($x8852 (= cell_7_7 1)))
 (or $x8852 (= cell_7_7 2) (= cell_7_7 3) (= cell_7_7 4) (= cell_7_7 5) (= cell_7_7 6) (= cell_7_7 7) (= cell_7_7 8) (= cell_7_7 9))))
(assert
 (let (($x7571 (= cell_8_7 1)))
 (or $x7571 (= cell_8_7 2) (= cell_8_7 3) (= cell_8_7 4) (= cell_8_7 5) (= cell_8_7 6) (= cell_8_7 7) (= cell_8_7 8) (= cell_8_7 9))))
(assert
 (let (($x4360 (= cell_9_7 1)))
 (or $x4360 (= cell_9_7 2) (= cell_9_7 3) (= cell_9_7 4) (= cell_9_7 5) (= cell_9_7 6) (= cell_9_7 7) (= cell_9_7 8) (= cell_9_7 9))))
(assert
 (let (($x5973 (= cell_1_8 1)))
 (or $x5973 (= cell_1_8 2) (= cell_1_8 3) (= cell_1_8 4) (= cell_1_8 5) (= cell_1_8 6) (= cell_1_8 7) (= cell_1_8 8) (= cell_1_8 9))))
(assert
 (let (($x3583 (= cell_2_8 9)))
 (let (($x9584 (= cell_2_8 8)))
 (let (($x8090 (= cell_2_8 7)))
 (let (($x1458 (= cell_2_8 6)))
 (let (($x9727 (= cell_2_8 5)))
 (let (($x4252 (= cell_2_8 4)))
 (let (($x2186 (= cell_2_8 3)))
 (let (($x3777 (= cell_2_8 2)))
 (let (($x4318 (= cell_2_8 1)))
 (or $x4318 $x3777 $x2186 $x4252 $x9727 $x1458 $x8090 $x9584 $x3583)))))))))))
(assert
 (let (($x3510 (= cell_3_8 9)))
 (let (($x4208 (= cell_3_8 8)))
 (let (($x5546 (= cell_3_8 7)))
 (let (($x3069 (= cell_3_8 6)))
 (let (($x3250 (= cell_3_8 5)))
 (let (($x10041 (= cell_3_8 4)))
 (let (($x5162 (= cell_3_8 3)))
 (let (($x5884 (= cell_3_8 2)))
 (let (($x5541 (= cell_3_8 1)))
 (or $x5541 $x5884 $x5162 $x10041 $x3250 $x3069 $x5546 $x4208 $x3510)))))))))))
(assert
 (let (($x8977 (= cell_4_8 9)))
 (let (($x2734 (= cell_4_8 8)))
 (let (($x6575 (= cell_4_8 7)))
 (let (($x2946 (= cell_4_8 6)))
 (let (($x6223 (= cell_4_8 5)))
 (let (($x9654 (= cell_4_8 4)))
 (let (($x2779 (= cell_4_8 3)))
 (let (($x192 (= cell_4_8 2)))
 (let (($x8264 (= cell_4_8 1)))
 (or $x8264 $x192 $x2779 $x9654 $x6223 $x2946 $x6575 $x2734 $x8977)))))))))))
(assert
 (let (($x8297 (= cell_5_8 9)))
 (let (($x5475 (= cell_5_8 8)))
 (let (($x1986 (= cell_5_8 7)))
 (let (($x8465 (= cell_5_8 6)))
 (let (($x9086 (= cell_5_8 5)))
 (let (($x2674 (= cell_5_8 4)))
 (let (($x801 (= cell_5_8 3)))
 (let (($x3060 (= cell_5_8 2)))
 (let (($x5682 (= cell_5_8 1)))
 (or $x5682 $x3060 $x801 $x2674 $x9086 $x8465 $x1986 $x5475 $x8297)))))))))))
(assert
 (let (($x8580 (= cell_6_8 9)))
 (let (($x2011 (= cell_6_8 8)))
 (let (($x1570 (= cell_6_8 7)))
 (let (($x7752 (= cell_6_8 6)))
 (let (($x4820 (= cell_6_8 5)))
 (let (($x491 (= cell_6_8 4)))
 (let (($x9355 (= cell_6_8 3)))
 (let (($x7015 (= cell_6_8 2)))
 (let (($x1156 (= cell_6_8 1)))
 (or $x1156 $x7015 $x9355 $x491 $x4820 $x7752 $x1570 $x2011 $x8580)))))))))))
(assert
 (let (($x5900 (= cell_7_8 2)))
 (let (($x1714 (= cell_7_8 1)))
 (or $x1714 $x5900 (= cell_7_8 3) (= cell_7_8 4) (= cell_7_8 5) (= cell_7_8 6) (= cell_7_8 7) (= cell_7_8 8) (= cell_7_8 9)))))
(assert
 (let (($x8699 (= cell_8_8 1)))
 (or $x8699 (= cell_8_8 2) (= cell_8_8 3) (= cell_8_8 4) (= cell_8_8 5) (= cell_8_8 6) (= cell_8_8 7) (= cell_8_8 8) (= cell_8_8 9))))
(assert
 (let (($x3840 (= cell_9_8 1)))
 (or $x3840 (= cell_9_8 2) (= cell_9_8 3) (= cell_9_8 4) (= cell_9_8 5) (= cell_9_8 6) (= cell_9_8 7) (= cell_9_8 8) (= cell_9_8 9))))
(assert
 (let (($x9585 (= cell_1_9 9)))
 (let (($x4999 (= cell_1_9 8)))
 (let (($x4602 (= cell_1_9 7)))
 (let (($x9289 (= cell_1_9 6)))
 (let (($x1473 (= cell_1_9 5)))
 (let (($x7197 (= cell_1_9 4)))
 (let (($x6268 (= cell_1_9 3)))
 (let (($x6461 (= cell_1_9 2)))
 (let (($x4486 (= cell_1_9 1)))
 (or $x4486 $x6461 $x6268 $x7197 $x1473 $x9289 $x4602 $x4999 $x9585)))))))))))
(assert
 (let (($x2950 (= cell_2_9 9)))
 (let (($x7658 (= cell_2_9 8)))
 (let (($x467 (= cell_2_9 7)))
 (let (($x1748 (= cell_2_9 6)))
 (let (($x4613 (= cell_2_9 5)))
 (let (($x7992 (= cell_2_9 4)))
 (let (($x9434 (= cell_2_9 3)))
 (let (($x5282 (= cell_2_9 2)))
 (let (($x4007 (= cell_2_9 1)))
 (or $x4007 $x5282 $x9434 $x7992 $x4613 $x1748 $x467 $x7658 $x2950)))))))))))
(assert
 (let (($x5193 (= cell_3_9 2)))
 (or (= cell_3_9 1) $x5193 (= cell_3_9 3) (= cell_3_9 4) (= cell_3_9 5) (= cell_3_9 6) (= cell_3_9 7) (= cell_3_9 8) (= cell_3_9 9))))
(assert
 (let (($x2370 (= cell_4_9 9)))
 (let (($x6976 (= cell_4_9 8)))
 (let (($x3778 (= cell_4_9 7)))
 (let (($x7363 (= cell_4_9 6)))
 (let (($x3575 (= cell_4_9 5)))
 (let (($x4311 (= cell_4_9 4)))
 (let (($x6167 (= cell_4_9 3)))
 (let (($x864 (= cell_4_9 2)))
 (let (($x1858 (= cell_4_9 1)))
 (or $x1858 $x864 $x6167 $x4311 $x3575 $x7363 $x3778 $x6976 $x2370)))))))))))
(assert
 (let (($x5669 (= cell_5_9 9)))
 (let (($x2466 (= cell_5_9 8)))
 (let (($x1321 (= cell_5_9 7)))
 (let (($x6827 (= cell_5_9 6)))
 (let (($x726 (= cell_5_9 5)))
 (let (($x1731 (= cell_5_9 4)))
 (let (($x7717 (= cell_5_9 3)))
 (let (($x7438 (= cell_5_9 2)))
 (let (($x6861 (= cell_5_9 1)))
 (or $x6861 $x7438 $x7717 $x1731 $x726 $x6827 $x1321 $x2466 $x5669)))))))))))
(assert
 (let (($x4453 (= cell_6_9 1)))
 (or $x4453 (= cell_6_9 2) (= cell_6_9 3) (= cell_6_9 4) (= cell_6_9 5) (= cell_6_9 6) (= cell_6_9 7) (= cell_6_9 8) (= cell_6_9 9))))
(assert
 (let (($x1216 (= cell_7_9 2)))
 (let (($x9902 (= cell_7_9 1)))
 (or $x9902 $x1216 (= cell_7_9 3) (= cell_7_9 4) (= cell_7_9 5) (= cell_7_9 6) (= cell_7_9 7) (= cell_7_9 8) (= cell_7_9 9)))))
(assert
 (let (($x570 (= cell_8_9 2)))
 (let (($x4028 (= cell_8_9 1)))
 (or $x4028 $x570 (= cell_8_9 3) (= cell_8_9 4) (= cell_8_9 5) (= cell_8_9 6) (= cell_8_9 7) (= cell_8_9 8) (= cell_8_9 9)))))
(assert
 (let (($x5897 (= cell_9_9 2)))
 (let (($x472 (= cell_9_9 1)))
 (or $x472 $x5897 (= cell_9_9 3) (= cell_9_9 4) (= cell_9_9 5) (= cell_9_9 6) (= cell_9_9 7) (= cell_9_9 8) (= cell_9_9 9)))))
(assert
 (and (distinct cell_1_1 cell_1_2 cell_1_3 cell_1_4 cell_1_5 cell_1_6 cell_1_7 cell_1_8 cell_1_9) true))
(assert
 (and (distinct cell_2_1 cell_2_2 cell_2_3 cell_2_4 cell_2_5 cell_2_6 cell_2_7 cell_2_8 cell_2_9) true))
(assert
 (and (distinct cell_3_1 cell_3_2 cell_3_3 cell_3_4 cell_3_5 cell_3_6 cell_3_7 cell_3_8 cell_3_9) true))
(assert
 (and (distinct cell_4_1 cell_4_2 cell_4_3 cell_4_4 cell_4_5 cell_4_6 cell_4_7 cell_4_8 cell_4_9) true))
(assert
 (and (distinct cell_5_1 cell_5_2 cell_5_3 cell_5_4 cell_5_5 cell_5_6 cell_5_7 cell_5_8 cell_5_9) true))
(assert
 (and (distinct cell_6_1 cell_6_2 cell_6_3 cell_6_4 cell_6_5 cell_6_6 cell_6_7 cell_6_8 cell_6_9) true))
(assert
 (and (distinct cell_7_1 cell_7_2 cell_7_3 cell_7_4 cell_7_5 cell_7_6 cell_7_7 cell_7_8 cell_7_9) true))
(assert
 (and (distinct cell_8_1 cell_8_2 cell_8_3 cell_8_4 cell_8_5 cell_8_6 cell_8_7 cell_8_8 cell_8_9) true))
(assert
 (and (distinct cell_9_1 cell_9_2 cell_9_3 cell_9_4 cell_9_5 cell_9_6 cell_9_7 cell_9_8 cell_9_9) true))
(assert
 (and (distinct cell_1_1 cell_2_1 cell_3_1 cell_4_1 cell_5_1 cell_6_1 cell_7_1 cell_8_1 cell_9_1) true))
(assert
 (and (distinct cell_1_2 cell_2_2 cell_3_2 cell_4_2 cell_5_2 cell_6_2 cell_7_2 cell_8_2 cell_9_2) true))
(assert
 (and (distinct cell_1_3 cell_2_3 cell_3_3 cell_4_3 cell_5_3 cell_6_3 cell_7_3 cell_8_3 cell_9_3) true))
(assert
 (and (distinct cell_1_4 cell_2_4 cell_3_4 cell_4_4 cell_5_4 cell_6_4 cell_7_4 cell_8_4 cell_9_4) true))
(assert
 (and (distinct cell_1_5 cell_2_5 cell_3_5 cell_4_5 cell_5_5 cell_6_5 cell_7_5 cell_8_5 cell_9_5) true))
(assert
 (and (distinct cell_1_6 cell_2_6 cell_3_6 cell_4_6 cell_5_6 cell_6_6 cell_7_6 cell_8_6 cell_9_6) true))
(assert
 (and (distinct cell_1_7 cell_2_7 cell_3_7 cell_4_7 cell_5_7 cell_6_7 cell_7_7 cell_8_7 cell_9_7) true))
(assert
 (and (distinct cell_1_8 cell_2_8 cell_3_8 cell_4_8 cell_5_8 cell_6_8 cell_7_8 cell_8_8 cell_9_8) true))
(assert
 (and (distinct cell_1_9 cell_2_9 cell_3_9 cell_4_9 cell_5_9 cell_6_9 cell_7_9 cell_8_9 cell_9_9) true))
(assert
 (and (distinct cell_1_1 cell_1_2 cell_1_3 cell_2_1 cell_2_2 cell_2_3 cell_3_1 cell_3_2 cell_3_3) true))
(assert
 (and (distinct cell_1_4 cell_1_5 cell_1_6 cell_2_4 cell_2_5 cell_2_6 cell_3_4 cell_3_5 cell_3_6) true))
(assert
 (and (distinct cell_1_7 cell_1_8 cell_1_9 cell_2_7 cell_2_8 cell_2_9 cell_3_7 cell_3_8 cell_3_9) true))
(assert
 (and (distinct cell_4_1 cell_4_2 cell_4_3 cell_5_1 cell_5_2 cell_5_3 cell_6_1 cell_6_2 cell_6_3) true))
(assert
 (and (distinct cell_4_4 cell_4_5 cell_4_6 cell_5_4 cell_5_5 cell_5_6 cell_6_4 cell_6_5 cell_6_6) true))
(assert
 (and (distinct cell_4_7 cell_4_8 cell_4_9 cell_5_7 cell_5_8 cell_5_9 cell_6_7 cell_6_8 cell_6_9) true))
(assert
 (and (distinct cell_7_1 cell_7_2 cell_7_3 cell_8_1 cell_8_2 cell_8_3 cell_9_1 cell_9_2 cell_9_3) true))
(assert
 (and (distinct cell_7_4 cell_7_5 cell_7_6 cell_8_4 cell_8_5 cell_8_6 cell_9_4 cell_9_5 cell_9_6) true))
(assert
 (and (distinct cell_7_7 cell_7_8 cell_7_9 cell_8_7 cell_8_8 cell_8_9 cell_9_7 cell_9_8 cell_9_9) true))
(assert
 (let (($x6183 (and (distinct cell_5_9 cell_6_8 cell_7_7 cell_8_6) true)))
 (let (($x2978 (and (distinct cell_2_9 cell_3_8 cell_4_7 cell_5_6 cell_6_5 cell_7_4 cell_8_3 cell_9_2) true)))
 (let (($x9693 (and (distinct cell_1_8 cell_2_7 cell_3_6 cell_4_5 cell_5_4 cell_6_3 cell_7_2 cell_8_1) true)))
 (let (($x4629 (and (distinct cell_1_5 cell_2_4 cell_3_3 cell_4_2) true)))
 (let (($x485 (and (distinct cell_5_1 cell_6_2 cell_7_3 cell_8_4) true)))
 (let (($x5651 (and (distinct cell_2_1 cell_3_2 cell_4_3 cell_5_4 cell_6_5 cell_7_6 cell_8_7 cell_9_8) true)))
 (let (($x1643 (and (distinct cell_1_2 cell_2_3 cell_3_4 cell_4_5 cell_5_6 cell_6_7 cell_7_8 cell_8_9) true)))
 (let (($x2146 (and (distinct cell_1_5 cell_2_6 cell_3_7 cell_4_8) true)))
 (and $x2146 $x1643 $x5651 $x485 $x4629 $x9693 $x2978 $x6183))))))))))
(assert
 (= cell_4_6 2))
(check-sat)
